p cnf 210 320
1 7 28 51 52 0
1 7 28 51 -52 0
1 7 28 -51 52 0
1 7 28 -51 -52 0
-1 7 28 53 54 0
-1 7 28 53 -54 0
-1 7 28 -53 54 0
-1 7 28 -53 -54 0
-7 13 35 55 56 0
-7 13 35 55 -56 0
-7 13 35 -55 56 0
-7 13 35 -55 -56 0
-7 -13 28 57 58 0
-7 -13 28 57 -58 0
-7 -13 28 -57 58 0
-7 -13 28 -57 -58 0
-28 35 37 59 60 0
-28 35 37 59 -60 0
-28 35 37 -59 60 0
-28 35 37 -59 -60 0
-28 35 -37 61 62 0
-28 35 -37 61 -62 0
-28 35 -37 -61 62 0
-28 35 -37 -61 -62 0
2 -35 43 63 64 0
2 -35 43 63 -64 0
2 -35 43 -63 64 0
2 -35 43 -63 -64 0
2 -35 -43 65 66 0
2 -35 -43 65 -66 0
2 -35 -43 -65 66 0
2 -35 -43 -65 -66 0
-2 -35 38 67 68 0
-2 -35 38 67 -68 0
-2 -35 38 -67 68 0
-2 -35 38 -67 -68 0
-2 9 -38 69 70 0
-2 9 -38 69 -70 0
-2 9 -38 -69 70 0
-2 9 -38 -69 -70 0
-9 -24 -38 71 72 0
-9 -24 -38 71 -72 0
-9 -24 -38 -71 72 0
-9 -24 -38 -71 -72 0
-9 36 -38 73 74 0
-9 36 -38 73 -74 0
-9 36 -38 -73 74 0
-9 36 -38 -73 -74 0
-21 -36 -38 75 76 0
-21 -36 -38 75 -76 0
-21 -36 -38 -75 76 0
-21 -36 -38 -75 -76 0
12 24 -36 77 78 0
12 24 -36 77 -78 0
12 24 -36 -77 78 0
12 24 -36 -77 -78 0
-12 21 31 79 80 0
-12 21 31 79 -80 0
-12 21 31 -79 80 0
-12 21 31 -79 -80 0
6 -12 -31 81 82 0
6 -12 -31 81 -82 0
6 -12 -31 -81 82 0
6 -12 -31 -81 -82 0
-6 -31 42 83 84 0
-6 -31 42 83 -84 0
-6 -31 42 -83 84 0
-6 -31 42 -83 -84 0
-6 33 -42 85 86 0
-6 33 -42 85 -86 0
-6 33 -42 -85 86 0
-6 33 -42 -85 -86 0
-18 -33 -42 87 88 0
-18 -33 -42 87 -88 0
-18 -33 -42 -87 88 0
-18 -33 -42 -87 -88 0
4 18 -33 89 90 0
4 18 -33 89 -90 0
4 18 -33 -89 90 0
4 18 -33 -89 -90 0
-17 18 24 91 92 0
-17 18 24 91 -92 0
-17 18 24 -91 92 0
-17 18 24 -91 -92 0
-4 -17 -24 93 94 0
-4 -17 -24 93 -94 0
-4 -17 -24 -93 94 0
-4 -17 -24 -93 -94 0
-4 -16 17 95 96 0
-4 -16 17 95 -96 0
-4 -16 17 -95 96 0
-4 -16 17 -95 -96 0
17 19 21 97 98 0
17 19 21 97 -98 0
17 19 21 -97 98 0
17 19 21 -97 -98 0
-4 19 -21 99 100 0
-4 19 -21 99 -100 0
-4 19 -21 -99 100 0
-4 19 -21 -99 -100 0
17 -19 -20 101 102 0
17 -19 -20 101 -102 0
17 -19 -20 -101 102 0
17 -19 -20 -101 -102 0
-19 20 -49 103 104 0
-19 20 -49 103 -104 0
-19 20 -49 -103 104 0
-19 20 -49 -103 -104 0
20 -47 49 105 106 0
20 -47 49 105 -106 0
20 -47 49 -105 106 0
20 -47 49 -105 -106 0
20 26 47 107 108 0
20 26 47 107 -108 0
20 26 47 -107 108 0
20 26 47 -107 -108 0
20 25 -26 109 110 0
20 25 -26 109 -110 0
20 25 -26 -109 110 0
20 25 -26 -109 -110 0
14 -25 -26 111 112 0
14 -25 -26 111 -112 0
14 -25 -26 -111 112 0
14 -25 -26 -111 -112 0
-14 16 44 113 114 0
-14 16 44 113 -114 0
-14 16 44 -113 114 0
-14 16 44 -113 -114 0
-16 -25 44 115 116 0
-16 -25 44 115 -116 0
-16 -25 44 -115 116 0
-16 -25 44 -115 -116 0
-14 34 -44 117 118 0
-14 34 -44 117 -118 0
-14 34 -44 -117 118 0
-14 34 -44 -117 -118 0
3 -34 -44 119 120 0
3 -34 -44 119 -120 0
3 -34 -44 -119 120 0
3 -34 -44 -119 -120 0
-1 -3 -34 121 122 0
-1 -3 -34 121 -122 0
-1 -3 -34 -121 122 0
-1 -3 -34 -121 -122 0
-3 -34 41 123 124 0
-3 -34 41 123 -124 0
-3 -34 41 -123 124 0
-3 -34 41 -123 -124 0
23 39 -41 125 126 0
23 39 -41 125 -126 0
23 39 -41 -125 126 0
23 39 -41 -125 -126 0
-3 23 -39 127 128 0
-3 23 -39 127 -128 0
-3 23 -39 -127 128 0
-3 23 -39 -127 -128 0
-23 40 -41 129 130 0
-23 40 -41 129 -130 0
-23 40 -41 -129 130 0
-23 40 -41 -129 -130 0
-15 -23 49 131 132 0
-15 -23 49 131 -132 0
-15 -23 49 -131 132 0
-15 -23 49 -131 -132 0
-15 -40 -49 133 134 0
-15 -40 -49 133 -134 0
-15 -40 -49 -133 134 0
-15 -40 -49 -133 -134 0
15 -22 -40 135 136 0
15 -22 -40 135 -136 0
15 -22 -40 -135 136 0
15 -22 -40 -135 -136 0
8 15 22 137 138 0
8 15 22 137 -138 0
8 15 22 -137 138 0
8 15 22 -137 -138 0
-5 -8 22 139 140 0
-5 -8 22 139 -140 0
-5 -8 22 -139 140 0
-5 -8 22 -139 -140 0
5 -8 30 141 142 0
5 -8 30 141 -142 0
5 -8 30 -141 142 0
5 -8 30 -141 -142 0
-8 29 -30 143 144 0
-8 29 -30 143 -144 0
-8 29 -30 -143 144 0
-8 29 -30 -143 -144 0
-8 -13 -30 145 146 0
-8 -13 -30 145 -146 0
-8 -13 -30 -145 146 0
-8 -13 -30 -145 -146 0
5 -29 -37 147 148 0
5 -29 -37 147 -148 0
5 -29 -37 -147 148 0
5 -29 -37 -147 -148 0
13 -32 37 149 150 0
13 -32 37 149 -150 0
13 -32 37 -149 150 0
13 -32 37 -149 -150 0
32 37 46 151 152 0
32 37 46 151 -152 0
32 37 46 -151 152 0
32 37 46 -151 -152 0
32 39 -46 153 154 0
32 39 -46 153 -154 0
32 39 -46 -153 154 0
32 39 -46 -153 -154 0
10 -39 -46 155 156 0
10 -39 -46 155 -156 0
10 -39 -46 -155 156 0
10 -39 -46 -155 -156 0
-10 27 -39 157 158 0
-10 27 -39 157 -158 0
-10 27 -39 -157 158 0
-10 27 -39 -157 -158 0
-10 -27 48 159 160 0
-10 -27 48 159 -160 0
-10 -27 48 -159 160 0
-10 -27 48 -159 -160 0
11 -27 -48 161 162 0
11 -27 -48 161 -162 0
11 -27 -48 -161 162 0
11 -27 -48 -161 -162 0
-11 -48 50 163 164 0
-11 -48 50 163 -164 0
-11 -48 50 -163 164 0
-11 -48 50 -163 -164 0
-11 -45 -50 165 166 0
-11 -45 -50 165 -166 0
-11 -45 -50 -165 166 0
-11 -45 -50 -165 -166 0
-28 45 -50 167 168 0
-28 45 -50 167 -168 0
-28 45 -50 -167 168 0
-28 45 -50 -167 -168 0
-43 45 -50 169 170 0
-43 45 -50 169 -170 0
-43 45 -50 -169 170 0
-43 45 -50 -169 -170 0
7 43 45 171 172 0
7 43 45 171 -172 0
7 43 45 -171 172 0
7 43 45 -171 -172 0
10 11 26 173 174 0
10 11 26 173 -174 0
10 11 26 -173 174 0
10 11 26 -173 -174 0
14 -47 48 175 176 0
14 -47 48 175 -176 0
14 -47 48 -175 176 0
14 -47 48 -175 -176 0
39 43 44 177 178 0
39 43 44 177 -178 0
39 43 44 -177 178 0
39 43 44 -177 -178 0
8 27 42 179 180 0
8 27 42 179 -180 0
8 27 42 -179 180 0
8 27 42 -179 -180 0
9 -20 38 181 182 0
9 -20 38 181 -182 0
9 -20 38 -181 182 0
9 -20 38 -181 -182 0
1 19 50 183 184 0
1 19 50 183 -184 0
1 19 50 -183 184 0
1 19 50 -183 -184 0
6 31 36 185 186 0
6 31 36 185 -186 0
6 31 36 -185 186 0
6 31 36 -185 -186 0
3 6 -45 187 188 0
3 6 -45 187 -188 0
3 6 -45 -187 188 0
3 6 -45 -187 -188 0
13 -22 31 189 190 0
13 -22 31 189 -190 0
13 -22 31 -189 190 0
13 -22 31 -189 -190 0
26 46 47 191 192 0
26 46 47 191 -192 0
26 46 47 -191 192 0
26 46 47 -191 -192 0
5 12 40 193 194 0
5 12 40 193 -194 0
5 12 40 -193 194 0
5 12 40 -193 -194 0
-18 25 33 195 196 0
-18 25 33 195 -196 0
-18 25 33 -195 196 0
-18 25 33 -195 -196 0
2 16 30 197 198 0
2 16 30 197 -198 0
2 16 30 -197 198 0
2 16 30 -197 -198 0
4 -15 33 199 200 0
4 -15 33 199 -200 0
4 -15 33 -199 200 0
4 -15 33 -199 -200 0
25 29 40 201 202 0
25 29 40 201 -202 0
25 29 40 -201 202 0
25 29 40 -201 -202 0
-18 36 43 203 204 0
-18 36 43 203 -204 0
-18 36 43 -203 204 0
-18 36 43 -203 -204 0
5 -5 -29 205 206 0
5 -5 -29 205 -206 0
5 -5 -29 -205 206 0
5 -5 -29 -205 -206 0
-15 -32 41 207 208 0
-15 -32 41 207 -208 0
-15 -32 41 -207 208 0
-15 -32 41 -207 -208 0
21 24 34 209 210 0
21 24 34 209 -210 0
21 24 34 -209 210 0
21 24 34 -209 -210 0
